Welcome to the CBC MILP Solver 
Version: Trunk
Build Date: Apr 16 2020 

Starting solution of the Linear programming relaxation problem using Primal Simplex

Using Python-MIP package version 1.8.1
Machines:  4 Jobs:  4
Order: 
Job  0 : machine 0 ( 10 ) machine 3 ( 1 ) machine 2 ( 6 ) machine 1 ( 7 ) 
Job  1 : machine 0 ( 1 ) machine 3 ( 7 ) machine 1 ( 5 ) machine 2 ( 8 ) 
Job  2 : machine 3 ( 9 ) machine 2 ( 3 ) machine 1 ( 7 ) machine 0 ( 1 ) 
Job  3 : machine 1 ( 7 ) machine 3 ( 3 ) machine 0 ( 9 ) machine 2 ( 10 ) 
K:  44
Job  0 , e: machine  0 ( 0 ) machine  1 ( 17 ) machine  2 ( 11 ) machine  3 ( 10 ) 
Job  1 , e: machine  0 ( 0 ) machine  1 ( 8 ) machine  2 ( 13 ) machine  3 ( 1 ) 
Job  2 , e: machine  0 ( 19 ) machine  1 ( 12 ) machine  2 ( 9 ) machine  3 ( 0 ) 
Job  3 , e: machine  0 ( 10 ) machine  1 ( 0 ) machine  2 ( 19 ) machine  3 ( 7 ) 
Job  0 , f: machine  0 ( 14 ) machine  1 ( 0 ) machine  2 ( 7 ) machine  3 ( 13 ) 
Job  1 , f: machine  0 ( 20 ) machine  1 ( 8 ) machine  2 ( 0 ) machine  3 ( 13 ) 
Job  2 , f: machine  0 ( 0 ) machine  1 ( 1 ) machine  2 ( 8 ) machine  3 ( 11 ) 
Job  3 , f: machine  0 ( 10 ) machine  1 ( 22 ) machine  2 ( 0 ) machine  3 ( 19 ) 
EST and LST:
Job: 0 Machine: 0 EST: 0 LST: 20
Job: 0 Machine: 1 EST: 17 LST: 37
Job: 0 Machine: 2 EST: 11 LST: 31
Job: 0 Machine: 3 EST: 10 LST: 30
Job: 1 Machine: 0 EST: 0 LST: 23
Job: 1 Machine: 1 EST: 8 LST: 31
Job: 1 Machine: 2 EST: 13 LST: 36
Job: 1 Machine: 3 EST: 1 LST: 24
Job: 2 Machine: 0 EST: 19 LST: 43
Job: 2 Machine: 1 EST: 12 LST: 36
Job: 2 Machine: 2 EST: 9 LST: 33
Job: 2 Machine: 3 EST: 0 LST: 24
Job: 3 Machine: 0 EST: 10 LST: 25
Job: 3 Machine: 1 EST: 0 LST: 15
Job: 3 Machine: 2 EST: 19 LST: 34
Job: 3 Machine: 3 EST: 7 LST: 22
Order:
Job: 0 Machine: 0 = 0 
Job: 0 Machine: 1 = 3 
Job: 0 Machine: 2 = 2 
Job: 0 Machine: 3 = 1 
Job: 1 Machine: 0 = 0 
Job: 1 Machine: 1 = 2 
Job: 1 Machine: 2 = 3 
Job: 1 Machine: 3 = 1 
Job: 2 Machine: 0 = 3 
Job: 2 Machine: 1 = 2 
Job: 2 Machine: 2 = 1 
Job: 2 Machine: 3 = 0 
Job: 3 Machine: 0 = 2 
Job: 3 Machine: 1 = 0 
Job: 3 Machine: 2 = 3 
Job: 3 Machine: 3 = 1 
Distances:
Job 0, Machine 0 -> Machine 3: distance 10
Job 0, Machine 0 -> Machine 2: distance 11
Job 0, Machine 0 -> Machine 1: distance 17
Job 0, Machine 3 -> Machine 2: distance 1
Job 0, Machine 3 -> Machine 1: distance 7
Job 0, Machine 2 -> Machine 1: distance 6
Job 1, Machine 0 -> Machine 3: distance 1
Job 1, Machine 0 -> Machine 1: distance 8
Job 1, Machine 0 -> Machine 2: distance 13
Job 1, Machine 3 -> Machine 1: distance 7
Job 1, Machine 3 -> Machine 2: distance 12
Job 1, Machine 1 -> Machine 2: distance 5
Job 2, Machine 3 -> Machine 2: distance 9
Job 2, Machine 3 -> Machine 1: distance 12
Job 2, Machine 3 -> Machine 0: distance 19
Job 2, Machine 2 -> Machine 1: distance 3
Job 2, Machine 2 -> Machine 0: distance 10
Job 2, Machine 1 -> Machine 0: distance 7
Job 3, Machine 1 -> Machine 3: distance 7
Job 3, Machine 1 -> Machine 0: distance 10
Job 3, Machine 1 -> Machine 2: distance 19
Job 3, Machine 3 -> Machine 0: distance 3
Job 3, Machine 3 -> Machine 2: distance 12
Job 3, Machine 0 -> Machine 2: distance 9
McCormic linearization
[(0, 1), (0, 0), (3, 0), (3, 1), (2, 1), (2, 0), (1, 0), (1, 1)]
obj:  0.5999999999999999
solutions:  1
+ x(0,0) + 0.09999999999999998x(1,0) 
C:  28.999999999999996
x(0,0) = 0.20	 x(0,1) = 19.00	 x(0,2) = 13.00	 x(0,3) = 10.20	 
x(1,0) = 8.00	 x(1,1) = 16.00	 x(1,2) = 21.00	 x(1,3) = 9.00	 
x(2,0) = 20.20	 x(2,1) = 13.20	 x(2,2) = 10.20	 x(2,3) = 1.20	 
x(3,0) = 10.00	 x(3,1) = 0.00	 x(3,2) = 19.00	 x(3,3) = 7.00	 
y(0,1,0) = 0.37	 y(1,0,0) = 0.63	 
y(0,2,0) = 0.48	 y(2,0,0) = 0.52	 
y(0,3,0) = 0.99	 y(3,0,0) = 0.01	 
y(1,2,0) = 0.30	 y(2,1,0) = 0.70	 
y(1,3,0) = 0.96	 y(3,1,0) = 0.04	 
y(2,3,0) = 0.00	 y(3,2,0) = 1.00	 
y(0,1,1) = 0.48	 y(1,0,1) = 0.52	 
y(0,2,1) = 0.05	 y(2,0,1) = 0.95	 
y(0,3,1) = 0.00	 y(3,0,1) = 1.00	 
y(1,2,1) = 0.12	 y(2,1,1) = 0.88	 
y(1,3,1) = 0.38	 y(3,1,1) = 0.62	 
y(2,3,1) = 0.00	 y(3,2,1) = 1.00	 
y(0,1,2) = 0.48	 y(1,0,2) = 0.52	 
y(0,2,2) = 0.44	 y(2,0,2) = 0.56	 
y(0,3,2) = 1.00	 y(3,0,2) = 0.00	 
y(1,2,2) = 0.00	 y(2,1,2) = 1.00	 
y(1,3,2) = 0.26	 y(3,1,2) = 0.74	 
y(2,3,2) = 0.74	 y(3,2,2) = 0.26	 
y(0,1,3) = 0.28	 y(1,0,3) = 0.72	 
y(0,2,3) = 0.00	 y(2,0,3) = 1.00	 
y(0,3,3) = 0.01	 y(3,0,3) = 0.99	 
y(1,2,3) = 0.04	 y(2,1,3) = 0.96	 
y(1,3,3) = 0.04	 y(3,1,3) = 0.96	 
y(2,3,3) = 0.35	 y(3,2,3) = 0.65	 
obj:  0.7899005756148613
solutions:  1
+ 0.006122448979591835x(1,3) + 0.10010465724751437x(3,3) + 0.014599686028257458x(2,3) + 0.0016221873364730658x(0,3) 
[(1, 2), (3, 2), (1, 3), (3, 3), (0, 2), (3, 1), (2, 1), (2, 3), (2, 2), (0, 3), (1, 1)]
cliques:  1 mip: 72
C:  30.417270929465555
x(0,0) = 1.00	 x(0,1) = 23.42	 x(0,2) = 17.42	 x(0,3) = 16.42	 
x(1,0) = -0.00	 x(1,1) = 8.00	 x(1,2) = 13.00	 x(1,3) = 1.00	 
x(2,0) = 29.42	 x(2,1) = 22.42	 x(2,2) = 19.42	 x(2,3) = 10.42	 
x(3,0) = 11.14	 x(3,1) = 0.00	 x(3,2) = 20.14	 x(3,3) = 8.14	 
y(0,1,0) = 0.00	 y(1,0,0) = 1.00	 
y(0,2,0) = 0.67	 y(2,0,0) = 0.33	 
y(0,3,0) = 0.99	 y(3,0,0) = 0.01	 
y(1,2,0) = 0.69	 y(2,1,0) = 0.31	 
y(1,3,0) = 0.59	 y(3,1,0) = 0.41	 
y(2,3,0) = 0.00	 y(3,2,0) = 1.00	 
y(0,1,1) = 0.11	 y(1,0,1) = 0.89	 
y(0,2,1) = 0.23	 y(2,0,1) = 0.77	 
y(0,3,1) = 0.00	 y(3,0,1) = 1.00	 
y(1,2,1) = 0.61	 y(2,1,1) = 0.39	 
y(1,3,1) = 0.04	 y(3,1,1) = 0.96	 
y(2,3,1) = 0.00	 y(3,2,1) = 1.00	 
y(0,1,2) = 0.11	 y(1,0,2) = 0.89	 
y(0,2,2) = 0.38	 y(2,0,2) = 0.62	 
y(0,3,2) = 0.73	 y(3,0,2) = 0.27	 
y(1,2,2) = 0.41	 y(2,1,2) = 0.59	 
y(1,3,2) = 0.97	 y(3,1,2) = 0.03	 
y(2,3,2) = 0.87	 y(3,2,2) = 0.13	 
y(0,1,3) = 0.00	 y(1,0,3) = 1.00	 
y(0,2,3) = 0.43	 y(2,0,3) = 0.57	 
y(0,3,3) = 0.26	 y(3,0,3) = 0.74	 
y(1,2,3) = 0.58	 y(2,1,3) = 0.42	 
y(1,3,3) = 0.99	 y(3,1,3) = 0.01	 
y(2,3,3) = 0.03	 y(3,2,3) = 0.97	 
obj:  0.944930136053533
solutions:  1
+ 0.06229508196721313x(1,3) + 0.019672131147540982x(3,3) + 0.05901639344262295x(2,3) + 0.006557377049180323x(0,3) 
[(1, 3), (0, 0), (3, 3), (3, 0), (2, 0), (2, 3), (1, 0), (0, 3)]
cliques:  1 mip: 115
C:  31.290896927443484
x(0,0) = 0.93	 x(0,1) = 18.04	 x(0,2) = 11.93	 x(0,3) = 10.93	 
x(1,0) = 0.74	 x(1,1) = 8.74	 x(1,2) = 13.74	 x(1,3) = 1.74	 
x(2,0) = 30.29	 x(2,1) = 22.89	 x(2,2) = 19.89	 x(2,3) = 10.89	 
x(3,0) = 12.02	 x(3,1) = 1.74	 x(3,2) = 21.08	 x(3,3) = 9.02	 
y(0,1,0) = 0.03	 y(1,0,0) = 0.97	 
y(0,2,0) = 1.00	 y(2,0,0) = -0.00	 
y(0,3,0) = 0.99	 y(3,0,0) = 0.01	 
y(1,2,0) = 0.98	 y(2,1,0) = 0.02	 
y(1,3,0) = 0.96	 y(3,1,0) = 0.04	 
y(2,3,0) = 0.00	 y(3,2,0) = 1.00	 
y(0,1,1) = 0.01	 y(1,0,1) = 0.99	 
y(0,2,1) = 0.93	 y(2,0,1) = 0.07	 
y(0,3,1) = 0.00	 y(3,0,1) = 1.00	 
y(1,2,1) = 1.00	 y(2,1,1) = 0.00	 
y(1,3,1) = 0.00	 y(3,1,1) = 1.00	 
y(2,3,1) = 0.00	 y(3,2,1) = 1.00	 
y(0,1,2) = 0.83	 y(1,0,2) = 0.17	 
y(0,2,2) = 0.44	 y(2,0,2) = 0.56	 
y(0,3,2) = 1.00	 y(3,0,2) = 0.00	 
y(1,2,2) = 0.90	 y(2,1,2) = 0.10	 
y(1,3,2) = 0.97	 y(3,1,2) = 0.03	 
y(2,3,2) = 0.32	 y(3,2,2) = 0.68	 
y(0,1,3) = 0.00	 y(1,0,3) = 1.00	 
y(0,2,3) = 0.39	 y(2,0,3) = 0.61	 
y(0,3,3) = 0.07	 y(3,0,3) = 0.93	 
y(1,2,3) = 0.95	 y(2,1,3) = 0.05	 
y(1,3,3) = 1.00	 y(3,1,3) = 0.00	 
y(2,3,3) = 0.58	 y(3,2,3) = 0.42	 
obj:  0.8077713692841205
solutions:  1
+ 0.014411446806320453x(1,2) + 0.02264655926707499x(3,2) + 0.0020073086623089067x(1,3) + 0.010808585104740333x(0,2) 
[(1, 2), (3, 2), (1, 3), (3, 3), (2, 3), (2, 2), (0, 3), (0, 2)]
cliques:  1 mip: 119
C:  33.171402927467156
x(0,0) = 0.37	 x(0,1) = 26.17	 x(0,2) = 20.17	 x(0,3) = 19.17	 
x(1,0) = 6.26	 x(1,1) = 15.76	 x(1,2) = 20.76	 x(1,3) = 8.76	 
x(2,0) = 32.17	 x(2,1) = 23.33	 x(2,2) = 19.06	 x(2,3) = 10.06	 
x(3,0) = 11.54	 x(3,1) = 1.54	 x(3,2) = 20.54	 x(3,3) = 8.54	 
y(0,1,0) = 0.29	 y(1,0,0) = 0.71	 
y(0,2,0) = 0.99	 y(2,0,0) = 0.01	 
y(0,3,0) = 0.92	 y(3,0,0) = 0.08	 
y(1,2,0) = 0.81	 y(2,1,0) = 0.19	 
y(1,3,0) = 0.58	 y(3,1,0) = 0.42	 
y(2,3,0) = 0.00	 y(3,2,0) = 1.00	 
y(0,1,1) = 0.13	 y(1,0,1) = 0.87	 
y(0,2,1) = 0.69	 y(2,0,1) = 0.31	 
y(0,3,1) = 0.00	 y(3,0,1) = 1.00	 
y(1,2,1) = 1.00	 y(2,1,1) = 0.00	 
y(1,3,1) = 0.00	 y(3,1,1) = 1.00	 
y(2,3,1) = 0.00	 y(3,2,1) = 1.00	 
y(0,1,2) = 0.77	 y(1,0,2) = 0.23	 
y(0,2,2) = 0.09	 y(2,0,2) = 0.91	 
y(0,3,2) = 0.69	 y(3,0,2) = 0.31	 
y(1,2,2) = 0.08	 y(2,1,2) = 0.92	 
y(1,3,2) = 0.67	 y(3,1,2) = 0.33	 
y(2,3,2) = 0.91	 y(3,2,2) = 0.09	 
y(0,1,3) = 0.00	 y(1,0,3) = 1.00	 
y(0,2,3) = 0.00	 y(2,0,3) = 1.00	 
y(0,3,3) = 0.00	 y(3,0,3) = 1.00	 
y(1,2,3) = 0.53	 y(2,1,3) = 0.47	 
y(1,3,3) = 0.70	 y(3,1,3) = 0.30	 
y(2,3,3) = 0.38	 y(3,2,3) = 0.62	 
obj:  1.0
erro
[(1, 3), (0, 0), (3, 3), (3, 0), (2, 0), (2, 3), (1, 0), (0, 3)]
cliques:  0 mip: 145
C:  34.0
x(0,0) = 0.53	 x(0,1) = 25.44	 x(0,2) = 19.44	 x(0,3) = 16.73	 
x(1,0) = 4.70	 x(1,1) = 15.83	 x(1,2) = 20.83	 x(1,3) = 5.70	 
x(2,0) = 33.00	 x(2,1) = 21.17	 x(2,2) = 18.12	 x(2,3) = 9.12	 
x(3,0) = 12.12	 x(3,1) = 2.12	 x(3,2) = 21.12	 x(3,3) = 9.12	 
y(0,1,0) = 0.22	 y(1,0,0) = 0.78	 
y(0,2,0) = 1.00	 y(2,0,0) = 0.00	 
y(0,3,0) = 0.89	 y(3,0,0) = 0.11	 
y(1,2,0) = 0.88	 y(2,1,0) = 0.12	 
y(1,3,0) = 0.73	 y(3,1,0) = 0.27	 
y(2,3,0) = 0.00	 y(3,2,0) = 1.00	 
y(0,1,1) = 0.06	 y(1,0,1) = 0.94	 
y(0,2,1) = 0.19	 y(2,0,1) = 0.81	 
y(0,3,1) = 0.00	 y(3,0,1) = 1.00	 
y(1,2,1) = 1.00	 y(2,1,1) = 0.00	 
y(1,3,1) = 0.00	 y(3,1,1) = 1.00	 
y(2,3,1) = 0.00	 y(3,2,1) = 1.00	 
y(0,1,2) = 0.58	 y(1,0,2) = 0.42	 
y(0,2,2) = 0.10	 y(2,0,2) = 0.90	 
y(0,3,2) = 0.43	 y(3,0,2) = 0.57	 
y(1,2,2) = 0.01	 y(2,1,2) = 0.99	 
y(1,3,2) = 0.69	 y(3,1,2) = 0.31	 
y(2,3,2) = 1.00	 y(3,2,2) = 0.00	 
y(0,1,3) = 0.00	 y(1,0,3) = 1.00	 
y(0,2,3) = 0.06	 y(2,0,3) = 0.94	 
y(0,3,3) = 0.00	 y(3,0,3) = 1.00	 
y(1,2,3) = 0.57	 y(2,1,3) = 0.43	 
y(1,3,3) = 0.85	 y(3,1,3) = 0.15	 
y(2,3,3) = 0.59	 y(3,2,3) = 0.41	 
obj:  0.984770892336857
solutions:  1
+ 0.008458064613572175x(1,2) + 0.013744354997054769x(3,2) + 0.3269193010013744x(0,0) + 0.03353018471808969x(1,3) + 0.008382546179522452x(3,3) + 0.003987373317826886x(0,2) 
[(1, 2), (3, 2), (0, 0), (1, 3), (3, 3), (3, 0), (1, 0), (2, 3), (2, 2), (0, 3), (0, 2)]
cliques:  1 mip: 95
C:  34.0
x(0,0) = 1.16	 x(0,1) = 25.33	 x(0,2) = 18.49	 x(0,3) = 17.49	 
x(1,0) = 2.16	 x(1,1) = 16.25	 x(1,2) = 21.25	 x(1,3) = 3.16	 
x(2,0) = 33.00	 x(2,1) = 21.25	 x(2,2) = 17.49	 x(2,3) = 8.49	 
x(3,0) = 12.53	 x(3,1) = 2.53	 x(3,2) = 21.53	 x(3,3) = 9.53	 
y(0,1,0) = 0.08	 y(1,0,0) = 0.92	 
y(0,2,0) = 1.00	 y(2,0,0) = 0.00	 
y(0,3,0) = 0.91	 y(3,0,0) = 0.09	 
y(1,2,0) = 0.95	 y(2,1,0) = 0.05	 
y(1,3,0) = 0.87	 y(3,1,0) = 0.13	 
y(2,3,0) = 0.00	 y(3,2,0) = 1.00	 
y(0,1,1) = 0.04	 y(1,0,1) = 0.96	 
y(0,2,1) = 0.21	 y(2,0,1) = 0.79	 
y(0,3,1) = 0.00	 y(3,0,1) = 1.00	 
y(1,2,1) = 1.00	 y(2,1,1) = 0.00	 
y(1,3,1) = 0.00	 y(3,1,1) = 1.00	 
y(2,3,1) = 0.00	 y(3,2,1) = 1.00	 
y(0,1,2) = 0.65	 y(1,0,2) = 0.35	 
y(0,2,2) = 0.17	 y(2,0,2) = 0.83	 
y(0,3,2) = 0.40	 y(3,0,2) = 0.60	 
y(1,2,2) = 0.00	 y(2,1,2) = 1.00	 
y(1,3,2) = 0.69	 y(3,1,2) = 0.31	 
y(2,3,2) = 0.98	 y(3,2,2) = 0.02	 
y(0,1,3) = 0.00	 y(1,0,3) = 1.00	 
y(0,2,3) = 0.00	 y(2,0,3) = 1.00	 
y(0,3,3) = 0.00	 y(3,0,3) = 1.00	 
y(1,2,3) = 0.64	 y(2,1,3) = 0.36	 
y(1,3,3) = 0.97	 y(3,1,3) = 0.03	 
y(2,3,3) = 0.59	 y(3,2,3) = 0.41	 
obj:  0.996991632646165
solutions:  1
+ 0.05546751188589542x(1,3) + 0.02377179080824089x(3,3) + 0.05705229793977814x(2,3) + 0.0063391442155308975x(0,3) 
[(0, 1), (1, 3), (3, 3), (3, 1), (2, 1), (2, 3), (0, 3), (1, 1)]
cliques:  1 mip: 93
C:  34.00000000000001
x(0,0) = 0.00	 x(0,1) = 21.15	 x(0,2) = 15.15	 x(0,3) = 14.15	 
x(1,0) = 10.00	 x(1,1) = 21.00	 x(1,2) = 26.00	 x(1,3) = 14.00	 
x(2,0) = 33.00	 x(2,1) = 24.39	 x(2,2) = 21.39	 x(2,3) = 12.39	 
x(3,0) = 10.14	 x(3,1) = 0.14	 x(3,2) = 19.14	 x(3,3) = 7.14	 
y(0,1,0) = 0.63	 y(1,0,0) = 0.37	 
y(0,2,0) = 0.99	 y(2,0,0) = 0.01	 
y(0,3,0) = 0.99	 y(3,0,0) = 0.01	 
y(1,2,0) = 0.70	 y(2,1,0) = 0.30	 
y(1,3,0) = 0.29	 y(3,1,0) = 0.71	 
y(2,3,0) = 0.00	 y(3,2,0) = 1.00	 
y(0,1,1) = 0.31	 y(1,0,1) = 0.69	 
y(0,2,1) = 0.73	 y(2,0,1) = 0.27	 
y(0,3,1) = 0.00	 y(3,0,1) = 1.00	 
y(1,2,1) = 0.48	 y(2,1,1) = 0.52	 
y(1,3,1) = 0.00	 y(3,1,1) = 1.00	 
y(2,3,1) = 0.00	 y(3,2,1) = 1.00	 
y(0,1,2) = 0.93	 y(1,0,2) = 0.07	 
y(0,2,2) = 0.55	 y(2,0,2) = 0.45	 
y(0,3,2) = 0.69	 y(3,0,2) = 0.31	 
y(1,2,2) = 0.00	 y(2,1,2) = 1.00	 
y(1,3,2) = 0.39	 y(3,1,2) = 0.61	 
y(2,3,2) = 0.69	 y(3,2,2) = 0.31	 
y(0,1,3) = 0.33	 y(1,0,3) = 0.67	 
y(0,2,3) = 0.65	 y(2,0,3) = 0.35	 
y(0,3,3) = 0.00	 y(3,0,3) = 1.00	 
y(1,2,3) = 0.39	 y(2,1,3) = 0.61	 
y(1,3,3) = 0.42	 y(3,1,3) = 0.58	 
y(2,3,3) = 0.29	 y(3,2,3) = 0.71	 
obj:  0.9925473367012699
solutions:  1
+ 0.0003278981008431453x(3,2) + 0.00622202719786158x(1,3) + 0.11021876750497667x(3,3) + 0.00081894158029205x(0,2) + 0.007999749254393486x(2,3) + 2.7324841736928183e-05x(2,2) 
[(0, 1), (3, 2), (1, 3), (3, 3), (0, 2), (3, 1), (2, 1), (2, 3), (2, 2), (0, 3), (1, 1)]
cliques:  1 mip: 96
C:  34.0
x(0,0) = 0.73	 x(0,1) = 26.76	 x(0,2) = 20.76	 x(0,3) = 10.73	 
x(1,0) = 2.72	 x(1,1) = 10.83	 x(1,2) = 15.83	 x(1,3) = 3.83	 
x(2,0) = 27.18	 x(2,1) = 20.18	 x(2,2) = 17.18	 x(2,3) = 8.18	 
x(3,0) = 13.62	 x(3,1) = 3.62	 x(3,2) = 23.83	 x(3,3) = 10.62	 
y(0,1,0) = 0.12	 y(1,0,0) = 0.88	 
y(0,2,0) = 0.82	 y(2,0,0) = 0.18	 
y(0,3,0) = 0.64	 y(3,0,0) = 0.36	 
y(1,2,0) = 1.00	 y(2,1,0) = 0.00	 
y(1,3,0) = 0.98	 y(3,1,0) = 0.02	 
y(2,3,0) = 0.00	 y(3,2,0) = 1.00	 
y(0,1,1) = 0.02	 y(1,0,1) = 0.98	 
y(0,2,1) = 0.03	 y(2,0,1) = 0.97	 
y(0,3,1) = 0.00	 y(3,0,1) = 1.00	 
y(1,2,1) = 0.81	 y(2,1,1) = 0.19	 
y(1,3,1) = 0.00	 y(3,1,1) = 1.00	 
y(2,3,1) = 0.00	 y(3,2,1) = 1.00	 
y(0,1,2) = 0.20	 y(1,0,2) = 0.80	 
y(0,2,2) = 0.02	 y(2,0,2) = 0.98	 
y(0,3,2) = 0.56	 y(3,0,2) = 0.44	 
y(1,2,2) = 0.21	 y(2,1,2) = 0.79	 
y(1,3,2) = 1.00	 y(3,1,2) = 0.00	 
y(2,3,2) = 0.95	 y(3,2,2) = 0.05	 
y(0,1,3) = 0.01	 y(1,0,3) = 0.99	 
y(0,2,3) = 0.89	 y(2,0,3) = 0.11	 
y(0,3,3) = 0.19	 y(3,0,3) = 0.81	 
y(1,2,3) = 0.91	 y(2,1,3) = 0.09	 
y(1,3,3) = 0.99	 y(3,1,3) = 0.01	 
y(2,3,3) = 0.22	 y(3,2,3) = 0.78	 
obj:  0.9596687216004317
solutions:  1
+ 0.011818654167544544x(1,2) + 0.01876211349097694x(3,2) + 0.012025312736866184x(1,3) + 0.006489851318308774x(3,3) + 0.0004431995312829228x(2,2) + 0.017179018195523123x(0,3) + 0.0008863990625658586x(0,2) 
[(1, 2), (3, 2), (0, 0), (1, 3), (3, 3), (3, 0), (1, 0), (2, 3), (2, 2), (0, 3), (0, 2)]
cliques:  1 mip: 124
C:  34.254412119260735
x(0,0) = 1.77	 x(0,1) = 27.25	 x(0,2) = 18.97	 x(0,3) = 11.77	 
x(1,0) = 0.00	 x(1,1) = 11.75	 x(1,2) = 16.75	 x(1,3) = 4.75	 
x(2,0) = 26.17	 x(2,1) = 19.17	 x(2,2) = 16.17	 x(2,3) = 7.17	 
x(3,0) = 15.02	 x(3,1) = 4.75	 x(3,2) = 24.02	 x(3,3) = 12.02	 
y(0,1,0) = -0.00	 y(1,0,0) = 1.00	 
y(0,2,0) = 1.00	 y(2,0,0) = 0.00	 
y(0,3,0) = 0.66	 y(3,0,0) = 0.34	 
y(1,2,0) = 1.00	 y(2,1,0) = 0.00	 
y(1,3,0) = 0.95	 y(3,1,0) = 0.05	 
y(2,3,0) = 0.00	 y(3,2,0) = 1.00	 
y(0,1,1) = 0.00	 y(1,0,1) = 1.00	 
y(0,2,1) = 0.00	 y(2,0,1) = 1.00	 
y(0,3,1) = 0.00	 y(3,0,1) = 1.00	 
y(1,2,1) = 0.68	 y(2,1,1) = 0.32	 
y(1,3,1) = 0.00	 y(3,1,1) = 1.00	 
y(2,3,1) = 0.00	 y(3,2,1) = 1.00	 
y(0,1,2) = 0.66	 y(1,0,2) = 0.34	 
y(0,2,2) = 0.69	 y(2,0,2) = 0.31	 
y(0,3,2) = 0.64	 y(3,0,2) = 0.36	 
y(1,2,2) = 0.11	 y(2,1,2) = 0.89	 
y(1,3,2) = 0.97	 y(3,1,2) = 0.03	 
y(2,3,2) = 0.96	 y(3,2,2) = 0.04	 
y(0,1,3) = 0.00	 y(1,0,3) = 1.00	 
y(0,2,3) = 0.58	 y(2,0,3) = 0.42	 
y(0,3,3) = 0.22	 y(3,0,3) = 0.78	 
y(1,2,3) = 0.50	 y(2,1,3) = 0.50	 
y(1,3,3) = 1.00	 y(3,1,3) = 0.00	 
y(2,3,3) = 0.31	 y(3,2,3) = 0.69	 
obj:  1.0084236874915353
erro
[(1, 3), (0, 0), (3, 3), (3, 0), (2, 0), (2, 3), (1, 0), (0, 3)]
cliques:  0 mip: 127
C:  34.99999999999999
x(0,0) = 11.00	 x(0,1) = 28.00	 x(0,2) = 22.00	 x(0,3) = 21.00	 
x(1,0) = 0.00	 x(1,1) = 9.83	 x(1,2) = 15.95	 x(1,3) = 1.21	 
x(2,0) = 28.00	 x(2,1) = 21.00	 x(2,2) = 18.00	 x(2,3) = 9.00	 
x(3,0) = 16.00	 x(3,1) = 2.83	 x(3,2) = 25.00	 x(3,3) = 13.00	 
y(0,1,0) = 0.00	 y(1,0,0) = 1.00	 
y(0,2,0) = 1.00	 y(2,0,0) = -0.00	 
y(0,3,0) = 0.75	 y(3,0,0) = 0.25	 
y(1,2,0) = 1.00	 y(2,1,0) = 0.00	 
y(1,3,0) = 1.00	 y(3,1,0) = 0.00	 
y(2,3,0) = 0.00	 y(3,2,0) = 1.00	 
y(0,1,1) = 0.00	 y(1,0,1) = 1.00	 
y(0,2,1) = -0.00	 y(2,0,1) = 1.00	 
y(0,3,1) = 0.00	 y(3,0,1) = 1.00	 
y(1,2,1) = 0.68	 y(2,1,1) = 0.32	 
y(1,3,1) = 0.00	 y(3,1,1) = 1.00	 
y(2,3,1) = 0.00	 y(3,2,1) = 1.00	 
y(0,1,2) = 0.06	 y(1,0,2) = 0.94	 
y(0,2,2) = 0.64	 y(2,0,2) = 0.36	 
y(0,3,2) = 0.39	 y(3,0,2) = 0.61	 
y(1,2,2) = 0.22	 y(2,1,2) = 0.78	 
y(1,3,2) = 1.00	 y(3,1,2) = 0.00	 
y(2,3,2) = 0.87	 y(3,2,2) = 0.13	 
y(0,1,3) = 0.00	 y(1,0,3) = 1.00	 
y(0,2,3) = 0.22	 y(2,0,3) = 0.78	 
y(0,3,3) = 0.43	 y(3,0,3) = 0.57	 
y(1,2,3) = 0.69	 y(2,1,3) = 0.31	 
y(1,3,3) = 1.00	 y(3,1,3) = 0.00	 
y(2,3,3) = 0.77	 y(3,2,3) = 0.23	 
obj:  0.9922469062173848
solutions:  1
+ 0.07082152974504248x(1,3) + 0.02266288951841361x(3,3) + 0.06798866855524079x(2,3) 
[(0, 0), (1, 3), (3, 3), (3, 0), (3, 1), (2, 1), (2, 0), (2, 3), (1, 0), (1, 1), (0, 3)]
cliques:  1 mip: 0
C:  34.99999999999999
x(0,0) = 11.00	 x(0,1) = 28.00	 x(0,2) = 22.00	 x(0,3) = 21.00	 
x(1,0) = 0.00	 x(1,1) = 9.82	 x(1,2) = 15.93	 x(1,3) = 1.32	 
x(2,0) = 28.00	 x(2,1) = 21.00	 x(2,2) = 18.00	 x(2,3) = 9.00	 
x(3,0) = 16.00	 x(3,1) = 2.82	 x(3,2) = 25.00	 x(3,3) = 13.00	 
y(0,1,0) = 0.00	 y(1,0,0) = 1.00	 
y(0,2,0) = 1.00	 y(2,0,0) = -0.00	 
y(0,3,0) = 0.75	 y(3,0,0) = 0.25	 
y(1,2,0) = 1.00	 y(2,1,0) = 0.00	 
y(1,3,0) = 1.00	 y(3,1,0) = 0.00	 
y(2,3,0) = 0.00	 y(3,2,0) = 1.00	 
y(0,1,1) = 0.00	 y(1,0,1) = 1.00	 
y(0,2,1) = -0.00	 y(2,0,1) = 1.00	 
y(0,3,1) = 0.00	 y(3,0,1) = 1.00	 
y(1,2,1) = 0.68	 y(2,1,1) = 0.32	 
y(1,3,1) = 0.00	 y(3,1,1) = 1.00	 
y(2,3,1) = 0.00	 y(3,2,1) = 1.00	 
y(0,1,2) = 0.06	 y(1,0,2) = 0.94	 
y(0,2,2) = 0.64	 y(2,0,2) = 0.36	 
y(0,3,2) = 0.39	 y(3,0,2) = 0.61	 
y(1,2,2) = 0.22	 y(2,1,2) = 0.78	 
y(1,3,2) = 1.00	 y(3,1,2) = 0.00	 
y(2,3,2) = 0.87	 y(3,2,2) = 0.13	 
y(0,1,3) = 0.00	 y(1,0,3) = 1.00	 
y(0,2,3) = 0.22	 y(2,0,3) = 0.78	 
y(0,3,3) = 0.43	 y(3,0,3) = 0.57	 
y(1,2,3) = 0.69	 y(2,1,3) = 0.31	 
y(1,3,3) = 1.00	 y(3,1,3) = 0.00	 
y(2,3,3) = 0.77	 y(3,2,3) = 0.23	 
obj:  1.0000000000000002
erro
[(0, 0), (1, 3), (3, 3), (3, 0), (3, 1), (2, 1), (2, 0), (2, 3), (1, 0), (1, 1), (0, 3)]
cliques:  0 mip: 0
iterações: 11 cortes cliques encontrados: 9 mip: 1014 objective:  34.99999999999999
Coin0506I Presolve 157 (-171) rows, 90 (-71) columns and 490 (-260) elements
Clp1000I sum of infeasibilities 1.79124e-08 - average 1.14092e-10, 0 fixed columns
Coin0506I Presolve 157 (0) rows, 90 (0) columns and 490 (0) elements
Clp0029I End of values pass after 90 iterations
Clp0000I Optimal - objective value 29
Clp0000I Optimal - objective value 29
Coin0511I After Postsolve, objective 29, infeasibilities - dual 0 (0), primal 0 (0)
Clp0000I Optimal - objective value 29
Clp0000I Optimal - objective value 29
Clp0000I Optimal - objective value 29
Coin0511I After Postsolve, objective 29, infeasibilities - dual 0 (0), primal 0 (0)
Clp0032I Optimal objective 29 - 0 iterations time 0.012, Presolve 0.00, Idiot 0.01
Coin3009W Conflict graph built in 0.000 seconds, density: 0.070%
